NAME 
ROWS
 N  OBJ
 L  R0      
 L  R1      
 E  R2      
 E  R3      
 E  R4      
 E  R5      
 E  R6      
 E  R7      
 E  R8      
 E  R9      
 E  R10     
 E  R11     
 E  R12     
 E  R13     
 E  R14     
 E  R15     
 E  R16     
 E  R17     
 E  R18     
 E  R19     
 E  R20     
 E  R21     
 E  R22     
 E  R23     
 E  R24     
 E  R25     
 E  R26     
COLUMNS
    MARKER    'MARKER'                 'INTORG'
    I0(15)    OBJ       -113
    I0(15)    R0        -198
    I0(15)    R1        -131
    I0(15)    R2        11
    I0(15)    R4        11
    I0(15)    R6        6
    I0(15)    R7        18
    I0(15)    R8        17
    I0(15)    R9        1
    I0(15)    R10       16
    I0(15)    R12       8
    I0(15)    R13       15
    I0(15)    R14       5
    I0(15)    R15       7
    I0(15)    R16       8
    I0(15)    R26       1
    I1(16)    OBJ       163
    I1(16)    R0        -79
    I1(16)    R1        100
    I1(16)    R2        19
    I1(16)    R3        16
    I1(16)    R4        1
    I1(16)    R5        13
    I1(16)    R6        6
    I1(16)    R8        15
    I1(16)    R9        17
    I1(16)    R10       12
    I1(16)    R11       2
    I1(16)    R12       6
    I1(16)    R13       9
    I1(16)    R14       10
    I1(16)    R16       10
    I1(16)    R26       1
    I2(11)    OBJ       -62
    I2(11)    R0        196
    I2(11)    R1        -112
    I2(11)    R3        11
    I2(11)    R4        19
    I2(11)    R6        3
    I2(11)    R7        -1
    I2(11)    R8        15
    I2(11)    R9        3
    I2(11)    R10       -1
    I2(11)    R13       11
    I2(11)    R26       1
    I3(16)    OBJ       37
    I3(16)    R0        -18
    I3(16)    R1        108
    I3(16)    R2        11
    I3(16)    R3        12
    I3(16)    R4        6
    I3(16)    R5        19
    I3(16)    R6        4
    I3(16)    R7        18
    I3(16)    R8        10
    I3(16)    R9        17
    I3(16)    R12       3
    I3(16)    R13       15
    I3(16)    R14       17
    I3(16)    R15       5
    I3(16)    R16       17
    I3(16)    R26       1
    I4(15)    OBJ       -84
    I4(15)    R0        110
    I4(15)    R1        -126
    I4(15)    R3        7
    I4(15)    R4        10
    I4(15)    R5        10
    I4(15)    R6        19
    I4(15)    R8        12
    I4(15)    R10       7
    I4(15)    R11       9
    I4(15)    R12       17
    I4(15)    R13       18
    I4(15)    R14       16
    I4(15)    R15       3
    I4(15)    R16       13
    I4(15)    R26       1
    I5(13)    OBJ       -142
    I5(13)    R0        -52
    I5(13)    R1        134
    I5(13)    R2        15
    I5(13)    R3        16
    I5(13)    R6        17
    I5(13)    R7        8
    I5(13)    R8        16
    I5(13)    R11       11
    I5(13)    R13       1
    I5(13)    R14       11
    I5(13)    R15       9
    I5(13)    R16       15
    I5(13)    R26       1
    I6(14)    OBJ       -144
    I6(14)    R0        110
    I6(14)    R1        120
    I6(14)    R2        10
    I6(14)    R3        13
    I6(14)    R4        15
    I6(14)    R6        18
    I6(14)    R7        17
    I6(14)    R9        18
    I6(14)    R10       15
    I6(14)    R11       7
    I6(14)    R12       10
    I6(14)    R13       16
    I6(14)    R16       2
    I6(14)    R26       1
    I7(14)    OBJ       -175
    I7(14)    R0        190
    I7(14)    R1        -15
    I7(14)    R4        -1
    I7(14)    R5        6
    I7(14)    R6        2
    I7(14)    R7        7
    I7(14)    R8        14
    I7(14)    R9        7
    I7(14)    R11       1
    I7(14)    R12       17
    I7(14)    R13       2
    I7(14)    R15       1
    I7(14)    R16       1
    I7(14)    R26       1
    I8(15)    OBJ       -175
    I8(15)    R0        -39
    I8(15)    R1        -47
    I8(15)    R2        17
    I8(15)    R3        13
    I8(15)    R4        3
    I8(15)    R5        13
    I8(15)    R8        15
    I8(15)    R9        16
    I8(15)    R10       19
    I8(15)    R11       17
    I8(15)    R12       13
    I8(15)    R13       7
    I8(15)    R14       14
    I8(15)    R16       17
    I8(15)    R26       1
    I9(15)    OBJ       5
    I9(15)    R0        42
    I9(15)    R1        95
    I9(15)    R2        3
    I9(15)    R3        -1
    I9(15)    R4        4
    I9(15)    R5        14
    I9(15)    R6        4
    I9(15)    R7        -1
    I9(15)    R8        12
    I9(15)    R11       1
    I9(15)    R13       12
    I9(15)    R14       8
    I9(15)    R15       8
    I9(15)    R16       16
    I9(15)    R26       1
    I10(15)   OBJ       -183
    I10(15)   R0        131
    I10(15)   R1        -184
    I10(15)   R2        9
    I10(15)   R3        5
    I10(15)   R4        16
    I10(15)   R5        14
    I10(15)   R6        19
    I10(15)   R7        11
    I10(15)   R9        16
    I10(15)   R10       8
    I10(15)   R11       18
    I10(15)   R14       12
    I10(15)   R15       13
    I10(15)   R16       18
    I10(15)   R26       1
    I11(15)   OBJ       -155
    I11(15)   R0        -115
    I11(15)   R1        17
    I11(15)   R2        11
    I11(15)   R3        2
    I11(15)   R4        5
    I11(15)   R5        5
    I11(15)   R6        15
    I11(15)   R7        14
    I11(15)   R9        4
    I11(15)   R10       16
    I11(15)   R11       8
    I11(15)   R12       16
    I11(15)   R13       5
    I11(15)   R14       8
    I11(15)   R26       1
    I12(13)   OBJ       153
    I12(13)   R0        -51
    I12(13)   R1        -143
    I12(13)   R3        9
    I12(13)   R4        17
    I12(13)   R5        5
    I12(13)   R6        4
    I12(13)   R9        3
    I12(13)   R10       7
    I12(13)   R12       15
    I12(13)   R13       16
    I12(13)   R14       8
    I12(13)   R15       4
    I12(13)   R26       1
    I13(16)   OBJ       -50
    I13(16)   R0        -71
    I13(16)   R1        -181
    I13(16)   R2        2
    I13(16)   R3        9
    I13(16)   R4        11
    I13(16)   R5        8
    I13(16)   R6        14
    I13(16)   R7        11
    I13(16)   R8        18
    I13(16)   R9        8
    I13(16)   R11       17
    I13(16)   R13       15
    I13(16)   R14       4
    I13(16)   R15       19
    I13(16)   R16       4
    I13(16)   R26       1
    I14(15)   OBJ       41
    I14(15)   R0        164
    I14(15)   R1        128
    I14(15)   R2        13
    I14(15)   R3        6
    I14(15)   R4        4
    I14(15)   R6        11
    I14(15)   R7        12
    I14(15)   R8        8
    I14(15)   R9        7
    I14(15)   R10       12
    I14(15)   R11       4
    I14(15)   R14       8
    I14(15)   R15       16
    I14(15)   R16       16
    I14(15)   R26       1
    MARKER    'MARKER'                 'INTEND'
    C15(21)   R0        9
    C15(21)   R1        -2
    C15(21)   R5        16
    C15(21)   R6        18
    C15(21)   R7        5
    C15(21)   R8        18
    C15(21)   R10       -1
    C15(21)   R11       17
    C15(21)   R12       10
    C15(21)   R13       10
    C15(21)   R14       2
    C15(21)   R15       8
    C15(21)   R16       13
    C15(21)   R17       13
    C15(21)   R18       12
    C15(21)   R19       17
    C15(21)   R20       6
    C15(21)   R21       13
    C15(21)   R22       3
    C15(21)   R23       19
    C15(21)   R25       6
    C16(19)   OBJ       3
    C16(19)   R0        4
    C16(19)   R1        8
    C16(19)   R5        18
    C16(19)   R6        3
    C16(19)   R7        5
    C16(19)   R8        8
    C16(19)   R9        11
    C16(19)   R11       1
    C16(19)   R12       5
    C16(19)   R13       3
    C16(19)   R14       3
    C16(19)   R16       17
    C16(19)   R18       1
    C16(19)   R19       8
    C16(19)   R20       12
    C16(19)   R21       4
    C16(19)   R22       -1
    C16(19)   R24       18
    C16(19)   R25       5
    C17(19)   OBJ       -2
    C17(19)   R0        3
    C17(19)   R1        -2
    C17(19)   R3        15
    C17(19)   R4        17
    C17(19)   R5        14
    C17(19)   R6        17
    C17(19)   R7        1
    C17(19)   R8        4
    C17(19)   R9        19
    C17(19)   R10       2
    C17(19)   R12       14
    C17(19)   R13       -1
    C17(19)   R15       15
    C17(19)   R17       16
    C17(19)   R18       12
    C17(19)   R19       1
    C17(19)   R20       6
    C17(19)   R21       13
    C17(19)   R22       4
    C18(24)   OBJ       3
    C18(24)   R0        9
    C18(24)   R1        -9
    C18(24)   R2        7
    C18(24)   R3        13
    C18(24)   R4        19
    C18(24)   R5        9
    C18(24)   R6        7
    C18(24)   R7        12
    C18(24)   R8        7
    C18(24)   R9        13
    C18(24)   R10       2
    C18(24)   R11       -1
    C18(24)   R12       14
    C18(24)   R13       6
    C18(24)   R14       8
    C18(24)   R15       10
    C18(24)   R16       19
    C18(24)   R17       10
    C18(24)   R18       17
    C18(24)   R19       10
    C18(24)   R20       8
    C18(24)   R21       6
    C18(24)   R22       19
    C18(24)   R24       14
    C19(22)   OBJ       -4
    C19(22)   R0        3
    C19(22)   R1        1
    C19(22)   R2        -1
    C19(22)   R4        10
    C19(22)   R5        -1
    C19(22)   R6        9
    C19(22)   R7        3
    C19(22)   R9        12
    C19(22)   R11       1
    C19(22)   R12       5
    C19(22)   R13       13
    C19(22)   R15       1
    C19(22)   R16       11
    C19(22)   R17       1
    C19(22)   R18       3
    C19(22)   R19       14
    C19(22)   R20       14
    C19(22)   R21       12
    C19(22)   R22       17
    C19(22)   R23       19
    C19(22)   R24       5
    C19(22)   R25       17
    C20(18)   OBJ       9
    C20(18)   R0        7
    C20(18)   R1        1
    C20(18)   R3        1
    C20(18)   R4        3
    C20(18)   R5        18
    C20(18)   R6        19
    C20(18)   R7        14
    C20(18)   R9        1
    C20(18)   R10       16
    C20(18)   R12       14
    C20(18)   R14       15
    C20(18)   R17       13
    C20(18)   R19       19
    C20(18)   R20       3
    C20(18)   R21       7
    C20(18)   R22       16
    C20(18)   R24       11
    C20(18)   R25       13
    C21(22)   OBJ       -7
    C21(22)   R0        -8
    C21(22)   R1        1
    C21(22)   R2        5
    C21(22)   R3        16
    C21(22)   R5        12
    C21(22)   R6        18
    C21(22)   R7        11
    C21(22)   R8        16
    C21(22)   R9        18
    C21(22)   R10       1
    C21(22)   R11       11
    C21(22)   R12       5
    C21(22)   R13       8
    C21(22)   R15       3
    C21(22)   R17       5
    C21(22)   R19       18
    C21(22)   R20       16
    C21(22)   R21       12
    C21(22)   R22       3
    C21(22)   R23       8
    C21(22)   R24       4
    C21(22)   R25       -1
    C22(21)   OBJ       -1
    C22(21)   R0        -8
    C22(21)   R1        -6
    C22(21)   R2        18
    C22(21)   R4        4
    C22(21)   R5        18
    C22(21)   R6        19
    C22(21)   R7        10
    C22(21)   R8        18
    C22(21)   R9        6
    C22(21)   R11       9
    C22(21)   R12       10
    C22(21)   R13       16
    C22(21)   R15       5
    C22(21)   R16       17
    C22(21)   R18       7
    C22(21)   R19       10
    C22(21)   R20       5
    C22(21)   R21       9
    C22(21)   R23       13
    C22(21)   R24       1
    C22(21)   R25       3
    C23(21)   OBJ       -4
    C23(21)   R0        2
    C23(21)   R1        -4
    C23(21)   R2        2
    C23(21)   R3        6
    C23(21)   R4        6
    C23(21)   R5        9
    C23(21)   R6        2
    C23(21)   R10       18
    C23(21)   R11       12
    C23(21)   R12       13
    C23(21)   R13       11
    C23(21)   R14       9
    C23(21)   R16       12
    C23(21)   R17       3
    C23(21)   R19       18
    C23(21)   R20       18
    C23(21)   R21       3
    C23(21)   R22       16
    C23(21)   R23       15
    C23(21)   R24       7
    C23(21)   R25       15
    C24(20)   OBJ       8
    C24(20)   R0        -5
    C24(20)   R1        1
    C24(20)   R2        8
    C24(20)   R4        18
    C24(20)   R6        15
    C24(20)   R7        -1
    C24(20)   R8        3
    C24(20)   R9        7
    C24(20)   R10       10
    C24(20)   R11       2
    C24(20)   R12       5
    C24(20)   R16       16
    C24(20)   R17       -1
    C24(20)   R18       5
    C24(20)   R19       19
    C24(20)   R20       2
    C24(20)   R21       19
    C24(20)   R22       5
    C24(20)   R23       5
    C24(20)   R24       -1
    C25(1)    R2        1
    C26(1)    R3        1
    C27(1)    R4        1
    C28(1)    R5        1
    C29(1)    R6        1
    C30(1)    R7        1
    C31(1)    R8        1
    C32(1)    R9        1
    C33(1)    R10       1
    C34(1)    R11       1
    C35(1)    R12       1
    C36(1)    R13       1
    C37(1)    R14       1
    C38(1)    R15       1
    C39(1)    R16       1
    C40(1)    R17       1
    C41(1)    R18       1
    C42(1)    R19       1
    C43(1)    R20       1
    C44(1)    R21       1
    C45(1)    R22       1
    C46(1)    R23       1
    C47(1)    R24       1
    C48(1)    R25       1
    C49(1)    R26       1
RHS
    RHS1      R0        5.2669999999999993e+02
    RHS1      R1        -380
    RHS1      R2        52
    RHS1      R3        70
    RHS1      R4        99
    RHS1      R5        61
    RHS1      R6        83
    RHS1      R7        92
    RHS1      R8        86
    RHS1      R9        83
    RHS1      R10       72
    RHS1      R11       50
    RHS1      R12       55
    RHS1      R13       98
    RHS1      R14       99
    RHS1      R15       95
    RHS1      R16       55
    RHS1      R17       88
    RHS1      R18       80
    RHS1      R19       75
    RHS1      R20       68
    RHS1      R21       68
    RHS1      R22       81
    RHS1      R23       50
    RHS1      R24       70
    RHS1      R25       73
    RHS1      R26       5
BOUNDS
 UP BND1      I0(15)    2
 UP BND1      I1(16)    2
 UP BND1      I2(11)    2
 UP BND1      I3(16)    2
 UP BND1      I4(15)    2
 UP BND1      I5(13)    2
 UP BND1      I6(14)    2
 UP BND1      I7(14)    2
 UP BND1      I8(15)    2
 UP BND1      I9(15)    2
 UP BND1      I10(15)   2
 UP BND1      I11(15)   2
 UP BND1      I12(13)   2
 UP BND1      I13(16)   2
 UP BND1      I14(15)   2
ENDATA
